c ind 101 103 105 11 12 142 17 197 22 220 0
c ind 27 291 293 295 297 304 311 319 32 326 0
c ind 333 340 352 368 37 379 413 42 436 47 0
c ind 5 52 57 6 62 67 72 77 82 87 0
c ind 92 99 0
p cnf 500 1965
-1 -2 7 0
-1 2 285 0
-10 -11 0
-100 -101 12 0
-100 -12 101 0
-102 -103 12 0
-102 -12 103 0
-104 -105 12 0
-104 -12 105 0
-106 -107 110 0
-106 107 12 0
-107 -108 12 0
-107 -12 108 0
-108 -109 -12 0
-108 109 12 0
-109 -9 -55 0
-109 9 55 0
-110 -111 114 0
-110 111 12 0
-111 -112 12 0
-111 -12 112 0
-112 -113 -12 0
-112 113 12 0
-113 -15 -60 0
-113 15 60 0
-114 -64 115 0
-114 64 12 0
-115 -116 119 0
-115 116 12 0
-116 -117 12 0
-116 -12 117 0
-117 -118 -12 0
-117 118 12 0
-118 -25 -70 0
-118 25 70 0
-119 -120 123 0
-119 120 12 0
-12 0
-120 -12 121 0
-120 -121 12 0
-121 -122 -12 0
-121 122 12 0
-122 -30 -75 0
-122 30 75 0
-123 -124 127 0
-123 124 12 0
-124 -12 125 0
-124 -125 12 0
-125 -126 -12 0
-125 126 12 0
-126 -35 -80 0
-126 35 80 0
-127 -128 88 0
-127 128 12 0
-128 -12 129 0
-128 -129 12 0
-129 -130 -12 0
-129 130 12 0
-13 -14 18 0
-13 14 12 0
-130 -40 -85 0
-130 40 85 0
-131 -107 132 0
-131 107 255 0
-132 -133 137 0
-132 133 164 0
-133 104 0
-133 134 0
-134 102 0
-134 135 0
-135 100 0
-135 136 0
-136 -6 99 0
-136 -99 6 0
-137 -111 138 0
-137 111 12 0
-138 -139 143 0
-138 139 152 0
-139 -140 6 0
-139 -6 140 0
-14 -12 15 0
-14 -15 12 0
-140 -141 -6 0
-140 141 6 0
-141 -142 0
-143 -144 145 0
-143 144 12 0
-144 -12 65 0
-144 -65 12 0
-145 -116 146 0
-145 116 12 0
-146 -120 147 0
-146 120 12 0
-147 -148 149 0
-147 148 12 0
-148 -6 80 0
-148 -80 6 0
-149 -128 150 0
-149 128 12 0
-15 -16 -6 0
-15 16 6 0
-150 -151 6 0
-150 151 12 0
-151 -6 90 0
-151 -90 6 0
-152 -153 156 0
-152 153 12 0
-153 -12 154 0
-153 -154 12 0
-154 -155 -12 0
-154 155 12 0
-155 -20 -65 0
-155 20 65 0
-156 -116 157 0
-156 116 12 0
-157 -120 158 0
-157 120 12 0
-158 -124 159 0
-158 124 12 0
-159 -128 160 0
-159 128 12 0
-16 -17 0
-160 -161 6 0
-160 161 12 0
-161 -12 162 0
-161 -162 12 0
-162 -163 -12 0
-162 163 12 0
-163 -45 -90 0
-163 45 90 0
-164 -165 169 0
-164 165 174 0
-165 104 0
-165 166 0
-166 102 0
-166 167 0
-167 168 0
-167 98 0
-168 -101 6 0
-168 -6 101 0
-169 -111 170 0
-169 111 12 0
-170 -153 171 0
-170 153 12 0
-171 -116 172 0
-171 116 12 0
-172 -120 173 0
-172 120 12 0
-173 -79 159 0
-173 79 12 0
-174 -175 178 0
-174 175 183 0
-175 104 0
-175 176 0
-176 102 0
-176 177 0
-177 136 0
-177 168 0
-178 -111 179 0
-178 111 12 0
-179 -153 180 0
-179 153 12 0
-18 -19 23 0
-18 19 12 0
-180 -116 181 0
-180 116 12 0
-181 -182 158 0
-181 182 12 0
-182 -6 75 0
-182 -75 6 0
-183 -184 187 0
-183 184 201 0
-184 104 0
-184 185 0
-185 186 0
-185 97 0
-186 -103 6 0
-186 -6 103 0
-187 -111 188 0
-187 111 12 0
-188 -153 189 0
-188 153 12 0
-189 -116 190 0
-189 116 12 0
-19 -20 6 0
-19 -6 20 0
-190 -120 191 0
-190 120 12 0
-191 -124 192 0
-191 124 12 0
-192 -128 193 0
-192 128 200 0
-193 -194 198 0
-193 194 160 0
-194 -195 6 0
-194 -6 195 0
-195 -196 -6 0
-195 196 6 0
-196 -197 0
-198 -199 160 0
-198 199 12 0
-199 -6 85 0
-199 -85 6 0
-2 -3 6 0
-2 -6 3 0
-20 -21 -6 0
-20 21 6 0
-200 -194 198 0
-200 194 12 0
-201 -202 204 0
-201 202 211 0
-202 104 0
-202 203 0
-203 135 0
-203 186 0
-204 -205 206 0
-204 205 12 0
-205 -6 60 0
-205 -60 6 0
-206 -153 207 0
-206 153 12 0
-207 -116 208 0
-207 116 12 0
-208 -120 209 0
-208 120 12 0
-209 -124 210 0
-209 124 12 0
-21 -22 0
-210 -84 160 0
-210 84 12 0
-211 -212 214 0
-211 212 224 0
-212 166 0
-212 213 0
-213 -105 6 0
-213 -6 105 0
-214 -59 215 0
-214 59 12 0
-215 -153 216 0
-215 153 12 0
-216 -217 221 0
-216 217 156 0
-217 -218 6 0
-217 -6 218 0
-218 -219 -6 0
-218 219 6 0
-219 -220 0
-221 -116 222 0
-221 116 12 0
-222 -74 223 0
-222 74 12 0
-223 -148 159 0
-223 148 12 0
-224 -225 169 0
-224 225 227 0
-225 104 0
-225 226 0
-226 167 0
-226 186 0
-227 -228 230 0
-227 228 234 0
-228 104 0
-228 229 0
-229 177 0
-229 186 0
-23 -24 28 0
-23 24 12 0
-230 -111 231 0
-230 111 12 0
-231 -153 232 0
-231 153 12 0
-232 -233 157 0
-232 233 12 0
-233 -6 70 0
-233 -70 6 0
-234 -235 187 0
-234 235 236 0
-235 213 0
-235 96 0
-236 -237 238 0
-236 237 241 0
-237 134 0
-237 213 0
-238 -239 240 0
-238 239 12 0
-239 -55 6 0
-239 -6 55 0
-24 -12 25 0
-24 -25 12 0
-240 -111 206 0
-240 111 12 0
-241 -59 242 0
-241 59 253 0
-242 -111 243 0
-242 111 252 0
-243 -244 245 0
-243 244 63 0
-244 176 0
-244 213 0
-245 -64 246 0
-245 64 250 0
-246 -153 247 0
-246 153 249 0
-247 -217 248 0
-247 217 156 0
-248 -69 119 0
-248 69 12 0
-249 -217 248 0
-249 217 12 0
-25 -26 -6 0
-25 26 6 0
-250 -153 251 0
-250 153 12 0
-251 -217 12 0
-251 217 156 0
-252 -244 12 0
-252 244 63 0
-253 -111 254 0
-253 111 12 0
-254 -244 245 0
-254 244 12 0
-255 -133 12 0
-255 133 256 0
-256 -165 12 0
-256 165 257 0
-257 -175 12 0
-257 175 258 0
-258 -184 12 0
-258 184 259 0
-259 -202 12 0
-259 202 260 0
-26 -27 0
-260 -212 12 0
-260 212 261 0
-261 -225 12 0
-261 225 262 0
-262 -228 12 0
-262 228 263 0
-263 -235 12 0
-263 235 236 0
-264 -95 106 0
-264 95 265 0
-265 -107 266 0
-265 107 276 0
-266 -133 137 0
-266 133 267 0
-267 -165 169 0
-267 165 268 0
-268 -175 178 0
-268 175 269 0
-269 -184 187 0
-269 184 270 0
-270 -202 204 0
-270 202 271 0
-271 -212 214 0
-271 212 272 0
-272 -225 169 0
-272 225 273 0
-273 -228 230 0
-273 228 274 0
-274 -235 187 0
-274 235 275 0
-275 -237 238 0
-275 237 12 0
-276 -133 12 0
-276 133 277 0
-277 -165 12 0
-277 165 278 0
-278 -175 12 0
-278 175 279 0
-279 -184 12 0
-279 184 280 0
-28 -29 33 0
-28 29 12 0
-280 -202 12 0
-280 202 281 0
-281 -212 12 0
-281 212 282 0
-282 -225 12 0
-282 225 283 0
-283 -228 12 0
-283 228 284 0
-284 -235 12 0
-284 235 275 0
-285 -8 286 0
-285 8 480 0
-286 -287 298 0
-286 287 341 0
-287 288 0
-287 296 0
-288 289 0
-288 294 0
-289 290 0
-289 292 0
-29 -12 30 0
-29 -30 12 0
-290 -12 291 0
-290 -291 12 0
-292 -12 293 0
-292 -293 12 0
-294 -12 295 0
-294 -295 12 0
-296 -12 297 0
-296 -297 12 0
-298 -299 305 0
-298 299 12 0
-299 -12 300 0
-299 -300 12 0
-3 -4 -6 0
-3 4 6 0
-30 -31 -6 0
-30 31 6 0
-300 -301 -12 0
-300 301 12 0
-301 -302 -9 0
-301 302 9 0
-302 -303 -6 0
-302 303 6 0
-303 -304 0
-305 -306 312 0
-305 306 12 0
-306 -12 307 0
-306 -307 12 0
-307 -308 -12 0
-307 308 12 0
-308 -309 -15 0
-308 309 15 0
-309 -310 -6 0
-309 310 6 0
-31 -32 0
-310 -311 0
-312 -19 313 0
-312 19 12 0
-313 -314 320 0
-313 314 12 0
-314 -12 315 0
-314 -315 12 0
-315 -316 -12 0
-315 316 12 0
-316 -317 -25 0
-316 317 25 0
-317 -318 -6 0
-317 318 6 0
-318 -319 0
-320 -321 327 0
-320 321 12 0
-321 -12 322 0
-321 -322 12 0
-322 -323 -12 0
-322 323 12 0
-323 -324 -30 0
-323 324 30 0
-324 -325 -6 0
-324 325 6 0
-325 -326 0
-327 -328 334 0
-327 328 12 0
-328 -12 329 0
-328 -329 12 0
-329 -330 -12 0
-329 330 12 0
-33 -34 38 0
-33 34 12 0
-330 -331 -35 0
-330 331 35 0
-331 -332 -6 0
-331 332 6 0
-332 -333 0
-334 -335 43 0
-334 335 12 0
-335 -12 336 0
-335 -336 12 0
-336 -337 -12 0
-336 337 12 0
-337 -338 -40 0
-337 338 40 0
-338 -339 -6 0
-338 339 6 0
-339 -340 0
-34 -12 35 0
-34 -35 12 0
-341 -299 342 0
-341 299 471 0
-342 -343 347 0
-342 343 380 0
-343 296 0
-343 344 0
-344 294 0
-344 345 0
-345 292 0
-345 346 0
-346 -291 6 0
-346 -6 291 0
-347 -306 348 0
-347 306 12 0
-348 -349 353 0
-348 349 362 0
-349 -350 6 0
-349 -6 350 0
-35 -36 -6 0
-35 36 6 0
-350 -351 -6 0
-350 351 6 0
-351 -352 0
-353 -354 355 0
-353 354 12 0
-354 -12 20 0
-354 -20 12 0
-355 -314 356 0
-355 314 12 0
-356 -321 357 0
-356 321 12 0
-357 -358 359 0
-357 358 12 0
-358 -35 6 0
-358 -6 35 0
-359 -335 360 0
-359 335 12 0
-36 -37 0
-360 -361 48 0
-360 361 12 0
-361 -45 6 0
-361 -6 45 0
-362 -363 369 0
-362 363 12 0
-363 -12 364 0
-363 -364 12 0
-364 -365 -12 0
-364 365 12 0
-365 -366 -20 0
-365 366 20 0
-366 -367 -6 0
-366 367 6 0
-367 -368 0
-369 -314 370 0
-369 314 12 0
-370 -321 371 0
-370 321 12 0
-371 -328 372 0
-371 328 12 0
-372 -335 373 0
-372 335 12 0
-373 -374 48 0
-373 374 12 0
-374 -12 375 0
-374 -375 12 0
-375 -376 -12 0
-375 376 12 0
-376 -377 -45 0
-376 377 45 0
-377 -378 -6 0
-377 378 6 0
-378 -379 0
-38 -39 43 0
-38 39 12 0
-380 -381 385 0
-380 381 390 0
-381 296 0
-381 382 0
-382 294 0
-382 383 0
-383 290 0
-383 384 0
-384 -293 6 0
-384 -6 293 0
-385 -306 386 0
-385 306 12 0
-386 -363 387 0
-386 363 12 0
-387 -314 388 0
-387 314 12 0
-388 -321 389 0
-388 321 12 0
-389 -34 372 0
-389 34 12 0
-39 -12 40 0
-39 -40 12 0
-390 -391 394 0
-390 391 399 0
-391 296 0
-391 392 0
-392 294 0
-392 393 0
-393 346 0
-393 384 0
-394 -306 395 0
-394 306 12 0
-395 -363 396 0
-395 363 12 0
-396 -314 397 0
-396 314 12 0
-397 -398 371 0
-397 398 12 0
-398 -30 6 0
-398 -6 30 0
-399 -400 403 0
-399 400 417 0
-4 -5 0
-40 -41 -6 0
-40 41 6 0
-400 296 0
-400 401 0
-401 289 0
-401 402 0
-402 -295 6 0
-402 -6 295 0
-403 -306 404 0
-403 306 12 0
-404 -363 405 0
-404 363 12 0
-405 -314 406 0
-405 314 12 0
-406 -321 407 0
-406 321 12 0
-407 -328 408 0
-407 328 12 0
-408 -335 409 0
-408 335 416 0
-409 -410 414 0
-409 410 373 0
-41 -42 0
-410 -411 6 0
-410 -6 411 0
-411 -412 -6 0
-411 412 6 0
-412 -413 0
-414 -415 373 0
-414 415 12 0
-415 -40 6 0
-415 -6 40 0
-416 -410 414 0
-416 410 12 0
-417 -418 420 0
-417 418 427 0
-418 296 0
-418 419 0
-419 345 0
-419 402 0
-420 -421 422 0
-420 421 12 0
-421 -15 6 0
-421 -6 15 0
-422 -363 423 0
-422 363 12 0
-423 -314 424 0
-423 314 12 0
-424 -321 425 0
-424 321 12 0
-425 -328 426 0
-425 328 12 0
-426 -39 373 0
-426 39 12 0
-427 -428 430 0
-427 428 440 0
-428 382 0
-428 429 0
-429 -297 6 0
-429 -6 297 0
-43 -44 48 0
-43 44 12 0
-430 -14 431 0
-430 14 12 0
-431 -363 432 0
-431 363 12 0
-432 -433 437 0
-432 433 369 0
-433 -434 6 0
-433 -6 434 0
-434 -435 -6 0
-434 435 6 0
-435 -436 0
-437 -314 438 0
-437 314 12 0
-438 -29 439 0
-438 29 12 0
-439 -358 372 0
-439 358 12 0
-44 -12 45 0
-44 -45 12 0
-440 -441 385 0
-440 441 443 0
-441 296 0
-441 442 0
-442 383 0
-442 402 0
-443 -444 446 0
-443 444 450 0
-444 296 0
-444 445 0
-445 393 0
-445 402 0
-446 -306 447 0
-446 306 12 0
-447 -363 448 0
-447 363 12 0
-448 -449 370 0
-448 449 12 0
-449 -25 6 0
-449 -6 25 0
-45 -46 -6 0
-45 46 6 0
-450 -451 403 0
-450 451 452 0
-451 288 0
-451 429 0
-452 -453 454 0
-452 453 457 0
-453 344 0
-453 429 0
-454 -455 456 0
-454 455 12 0
-455 -6 9 0
-455 -9 6 0
-456 -306 422 0
-456 306 12 0
-457 -14 458 0
-457 14 469 0
-458 -306 459 0
-458 306 468 0
-459 -460 461 0
-459 460 18 0
-46 -47 0
-460 392 0
-460 429 0
-461 -19 462 0
-461 19 466 0
-462 -363 463 0
-462 363 465 0
-463 -433 464 0
-463 433 369 0
-464 -24 320 0
-464 24 12 0
-465 -433 464 0
-465 433 12 0
-466 -363 467 0
-466 363 12 0
-467 -433 12 0
-467 433 369 0
-468 -460 12 0
-468 460 18 0
-469 -306 470 0
-469 306 12 0
-470 -460 461 0
-470 460 12 0
-471 -343 12 0
-471 343 472 0
-472 -381 12 0
-472 381 473 0
-473 -391 12 0
-473 391 474 0
-474 -400 12 0
-474 400 475 0
-475 -418 12 0
-475 418 476 0
-476 -428 12 0
-476 428 477 0
-477 -441 12 0
-477 441 478 0
-478 -444 12 0
-478 444 479 0
-479 -451 12 0
-479 451 452 0
-48 -49 53 0
-48 49 93 0
-480 -287 298 0
-480 287 481 0
-481 -299 482 0
-481 299 492 0
-482 -343 347 0
-482 343 483 0
-483 -381 385 0
-483 381 484 0
-484 -391 394 0
-484 391 485 0
-485 -400 403 0
-485 400 486 0
-486 -418 420 0
-486 418 487 0
-487 -428 430 0
-487 428 488 0
-488 -441 385 0
-488 441 489 0
-489 -444 446 0
-489 444 490 0
-49 -50 6 0
-49 -6 50 0
-490 -451 403 0
-490 451 491 0
-491 -453 454 0
-491 453 12 0
-492 -343 12 0
-492 343 493 0
-493 -381 12 0
-493 381 494 0
-494 -391 12 0
-494 391 495 0
-495 -400 12 0
-495 400 496 0
-496 -418 12 0
-496 418 497 0
-497 -428 12 0
-497 428 498 0
-498 -441 12 0
-498 441 499 0
-499 -444 12 0
-499 444 500 0
-50 -51 -6 0
-50 51 6 0
-500 -451 12 0
-500 451 491 0
-51 -52 0
-53 -54 58 0
-53 54 12 0
-54 -12 55 0
-54 -55 12 0
-55 -56 -6 0
-55 56 6 0
-56 -57 0
-58 -59 63 0
-58 59 12 0
-59 -12 60 0
-59 -60 12 0
-60 -61 -6 0
-60 61 6 0
-61 -62 0
-63 -64 68 0
-63 64 12 0
-64 -6 65 0
-64 -65 6 0
-65 -66 -6 0
-65 66 6 0
-66 -67 0
-68 -69 73 0
-68 69 12 0
-69 -12 70 0
-69 -70 12 0
-7 -8 13 0
-7 8 12 0
-70 -71 -6 0
-70 71 6 0
-71 -72 0
-73 -74 78 0
-73 74 12 0
-74 -12 75 0
-74 -75 12 0
-75 -76 -6 0
-75 76 6 0
-76 -77 0
-78 -79 83 0
-78 79 12 0
-79 -12 80 0
-79 -80 12 0
-8 -12 9 0
-8 -9 12 0
-80 -81 -6 0
-80 81 6 0
-81 -82 0
-83 -84 88 0
-83 84 12 0
-84 -12 85 0
-84 -85 12 0
-85 -86 -6 0
-85 86 6 0
-86 -87 0
-88 -89 6 0
-88 89 12 0
-89 -12 90 0
-89 -90 12 0
-9 -10 -6 0
-9 10 6 0
-90 -91 -6 0
-90 91 6 0
-91 -92 0
-93 -54 94 0
-93 54 264 0
-94 -95 106 0
-94 95 131 0
-95 104 0
-95 96 0
-96 102 0
-96 97 0
-97 100 0
-97 98 0
-98 -12 99 0
-98 -99 12 0
1 -2 -7 0
1 -7 -285 0
1 0
1 2 -285 0
10 11 0
100 -101 -12 0
100 101 12 0
102 -103 -12 0
102 103 12 0
104 -105 -12 0
104 105 12 0
106 -107 -110 0
106 -110 -12 0
106 107 -12 0
107 -108 -12 0
107 108 12 0
108 -109 12 0
108 -12 109 0
109 -55 9 0
109 -9 55 0
110 -111 -114 0
110 -114 -12 0
110 111 -12 0
111 -112 -12 0
111 112 12 0
112 -113 12 0
112 -12 113 0
113 -15 60 0
113 -60 15 0
114 -115 -12 0
114 -64 -115 0
114 64 -12 0
115 -116 -119 0
115 -119 -12 0
115 116 -12 0
116 -117 -12 0
116 117 12 0
117 -118 12 0
117 -12 118 0
118 -25 70 0
118 -70 25 0
119 -120 -123 0
119 -123 -12 0
119 120 -12 0
120 -121 -12 0
120 121 12 0
121 -12 122 0
121 -122 12 0
122 -30 75 0
122 -75 30 0
123 -124 -127 0
123 -127 -12 0
123 124 -12 0
124 -125 -12 0
124 125 12 0
125 -12 126 0
125 -126 12 0
126 -35 80 0
126 -80 35 0
127 -128 -88 0
127 -88 -12 0
127 128 -12 0
128 -129 -12 0
128 129 12 0
129 -12 130 0
129 -130 12 0
13 -14 -18 0
13 -18 -12 0
13 14 -12 0
130 -40 85 0
130 -85 40 0
131 -107 -132 0
131 -132 -255 0
131 107 -255 0
132 -133 -137 0
132 -137 -164 0
132 133 -164 0
133 -134 -104 0
134 -135 -102 0
135 -136 -100 0
136 -99 -6 0
136 99 6 0
137 -111 -138 0
137 -138 -12 0
137 111 -12 0
138 -139 -143 0
138 -143 -152 0
138 139 -152 0
139 -140 -6 0
139 140 6 0
14 -15 -12 0
14 15 12 0
140 -141 6 0
140 -6 141 0
141 142 0
143 -144 -145 0
143 -145 -12 0
143 144 -12 0
144 -65 -12 0
144 65 12 0
145 -116 -146 0
145 -146 -12 0
145 116 -12 0
146 -120 -147 0
146 -147 -12 0
146 120 -12 0
147 -148 -149 0
147 -149 -12 0
147 148 -12 0
148 -80 -6 0
148 80 6 0
149 -128 -150 0
149 -150 -12 0
149 128 -12 0
15 -16 6 0
15 -6 16 0
150 -151 -6 0
150 -6 -12 0
150 151 -12 0
151 -90 -6 0
151 90 6 0
152 -153 -156 0
152 -156 -12 0
152 153 -12 0
153 -154 -12 0
153 154 12 0
154 -12 155 0
154 -155 12 0
155 -20 65 0
155 -65 20 0
156 -116 -157 0
156 -157 -12 0
156 116 -12 0
157 -120 -158 0
157 -158 -12 0
157 120 -12 0
158 -124 -159 0
158 -159 -12 0
158 124 -12 0
159 -128 -160 0
159 -160 -12 0
159 128 -12 0
16 17 0
160 -161 -6 0
160 -6 -12 0
160 161 -12 0
161 -162 -12 0
161 162 12 0
162 -12 163 0
162 -163 12 0
163 -45 90 0
163 -90 45 0
164 -165 -169 0
164 -169 -174 0
164 165 -174 0
165 -166 -104 0
166 -167 -102 0
167 -98 -168 0
168 -101 -6 0
168 101 6 0
169 -111 -170 0
169 -170 -12 0
169 111 -12 0
170 -153 -171 0
170 -171 -12 0
170 153 -12 0
171 -116 -172 0
171 -172 -12 0
171 116 -12 0
172 -120 -173 0
172 -173 -12 0
172 120 -12 0
173 -159 -12 0
173 -79 -159 0
173 79 -12 0
174 -175 -178 0
174 -178 -183 0
174 175 -183 0
175 -176 -104 0
176 -177 -102 0
177 -136 -168 0
178 -111 -179 0
178 -179 -12 0
178 111 -12 0
179 -153 -180 0
179 -180 -12 0
179 153 -12 0
18 -19 -23 0
18 -23 -12 0
18 19 -12 0
180 -116 -181 0
180 -181 -12 0
180 116 -12 0
181 -158 -12 0
181 -182 -158 0
181 182 -12 0
182 -75 -6 0
182 75 6 0
183 -184 -187 0
183 -187 -201 0
183 184 -201 0
184 -185 -104 0
185 -97 -186 0
186 -103 -6 0
186 103 6 0
187 -111 -188 0
187 -188 -12 0
187 111 -12 0
188 -153 -189 0
188 -189 -12 0
188 153 -12 0
189 -116 -190 0
189 -190 -12 0
189 116 -12 0
19 -20 -6 0
19 20 6 0
190 -120 -191 0
190 -191 -12 0
190 120 -12 0
191 -124 -192 0
191 -192 -12 0
191 124 -12 0
192 -128 -193 0
192 -193 -200 0
192 128 -200 0
193 -194 -198 0
193 -198 -160 0
193 194 -160 0
194 -195 -6 0
194 195 6 0
195 -196 6 0
195 -6 196 0
196 197 0
198 -160 -12 0
198 -199 -160 0
198 199 -12 0
199 -85 -6 0
199 85 6 0
2 -3 -6 0
2 3 6 0
20 -21 6 0
20 -6 21 0
200 -194 -198 0
200 -198 -12 0
200 194 -12 0
201 -202 -204 0
201 -204 -211 0
201 202 -211 0
202 -203 -104 0
203 -135 -186 0
204 -205 -206 0
204 -206 -12 0
204 205 -12 0
205 -60 -6 0
205 60 6 0
206 -153 -207 0
206 -207 -12 0
206 153 -12 0
207 -116 -208 0
207 -208 -12 0
207 116 -12 0
208 -120 -209 0
208 -209 -12 0
208 120 -12 0
209 -124 -210 0
209 -210 -12 0
209 124 -12 0
21 22 0
210 -160 -12 0
210 -84 -160 0
210 84 -12 0
211 -212 -214 0
211 -214 -224 0
211 212 -224 0
212 -166 -213 0
213 -105 -6 0
213 105 6 0
214 -215 -12 0
214 -59 -215 0
214 59 -12 0
215 -153 -216 0
215 -216 -12 0
215 153 -12 0
216 -217 -221 0
216 -221 -156 0
216 217 -156 0
217 -218 -6 0
217 218 6 0
218 -219 6 0
218 -6 219 0
219 220 0
221 -116 -222 0
221 -222 -12 0
221 116 -12 0
222 -223 -12 0
222 -74 -223 0
222 74 -12 0
223 -148 -159 0
223 -159 -12 0
223 148 -12 0
224 -169 -227 0
224 -225 -169 0
224 225 -227 0
225 -226 -104 0
226 -167 -186 0
227 -228 -230 0
227 -230 -234 0
227 228 -234 0
228 -229 -104 0
229 -177 -186 0
23 -24 -28 0
23 -28 -12 0
23 24 -12 0
230 -111 -231 0
230 -231 -12 0
230 111 -12 0
231 -153 -232 0
231 -232 -12 0
231 153 -12 0
232 -157 -12 0
232 -233 -157 0
232 233 -12 0
233 -70 -6 0
233 70 6 0
234 -187 -236 0
234 -235 -187 0
234 235 -236 0
235 -96 -213 0
236 -237 -238 0
236 -238 -241 0
236 237 -241 0
237 -134 -213 0
238 -239 -240 0
238 -240 -12 0
238 239 -12 0
239 -55 -6 0
239 55 6 0
24 -25 -12 0
24 25 12 0
240 -111 -206 0
240 -206 -12 0
240 111 -12 0
241 -242 -253 0
241 -59 -242 0
241 59 -253 0
242 -111 -243 0
242 -243 -252 0
242 111 -252 0
243 -244 -245 0
243 -245 -63 0
243 244 -63 0
244 -176 -213 0
245 -246 -250 0
245 -64 -246 0
245 64 -250 0
246 -153 -247 0
246 -247 -249 0
246 153 -249 0
247 -217 -248 0
247 -248 -156 0
247 217 -156 0
248 -119 -12 0
248 -69 -119 0
248 69 -12 0
249 -217 -248 0
249 -248 -12 0
249 217 -12 0
25 -26 6 0
25 -6 26 0
250 -153 -251 0
250 -251 -12 0
250 153 -12 0
251 -12 -156 0
251 -217 -12 0
251 217 -156 0
252 -12 -63 0
252 -244 -12 0
252 244 -63 0
253 -111 -254 0
253 -254 -12 0
253 111 -12 0
254 -244 -245 0
254 -245 -12 0
254 244 -12 0
255 -12 -256 0
255 -133 -12 0
255 133 -256 0
256 -12 -257 0
256 -165 -12 0
256 165 -257 0
257 -12 -258 0
257 -175 -12 0
257 175 -258 0
258 -12 -259 0
258 -184 -12 0
258 184 -259 0
259 -12 -260 0
259 -202 -12 0
259 202 -260 0
26 27 0
260 -12 -261 0
260 -212 -12 0
260 212 -261 0
261 -12 -262 0
261 -225 -12 0
261 225 -262 0
262 -12 -263 0
262 -228 -12 0
262 228 -263 0
263 -12 -236 0
263 -235 -12 0
263 235 -236 0
264 -106 -265 0
264 -95 -106 0
264 95 -265 0
265 -107 -266 0
265 -266 -276 0
265 107 -276 0
266 -133 -137 0
266 -137 -267 0
266 133 -267 0
267 -165 -169 0
267 -169 -268 0
267 165 -268 0
268 -175 -178 0
268 -178 -269 0
268 175 -269 0
269 -184 -187 0
269 -187 -270 0
269 184 -270 0
270 -202 -204 0
270 -204 -271 0
270 202 -271 0
271 -212 -214 0
271 -214 -272 0
271 212 -272 0
272 -169 -273 0
272 -225 -169 0
272 225 -273 0
273 -228 -230 0
273 -230 -274 0
273 228 -274 0
274 -187 -275 0
274 -235 -187 0
274 235 -275 0
275 -237 -238 0
275 -238 -12 0
275 237 -12 0
276 -12 -277 0
276 -133 -12 0
276 133 -277 0
277 -12 -278 0
277 -165 -12 0
277 165 -278 0
278 -12 -279 0
278 -175 -12 0
278 175 -279 0
279 -12 -280 0
279 -184 -12 0
279 184 -280 0
28 -29 -33 0
28 -33 -12 0
28 29 -12 0
280 -12 -281 0
280 -202 -12 0
280 202 -281 0
281 -12 -282 0
281 -212 -12 0
281 212 -282 0
282 -12 -283 0
282 -225 -12 0
282 225 -283 0
283 -12 -284 0
283 -228 -12 0
283 228 -284 0
284 -12 -275 0
284 -235 -12 0
284 235 -275 0
285 -286 -480 0
285 -8 -286 0
285 8 -480 0
286 -287 -298 0
286 -298 -341 0
286 287 -341 0
287 -288 -296 0
288 -289 -294 0
289 -290 -292 0
29 -30 -12 0
29 30 12 0
290 -291 -12 0
290 291 12 0
292 -293 -12 0
292 293 12 0
294 -295 -12 0
294 295 12 0
296 -297 -12 0
296 297 12 0
298 -299 -305 0
298 -305 -12 0
298 299 -12 0
299 -300 -12 0
299 300 12 0
3 -4 6 0
3 -6 4 0
30 -31 6 0
30 -6 31 0
300 -12 301 0
300 -301 12 0
301 -302 9 0
301 -9 302 0
302 -303 6 0
302 -6 303 0
303 304 0
305 -306 -312 0
305 -312 -12 0
305 306 -12 0
306 -307 -12 0
306 307 12 0
307 -12 308 0
307 -308 12 0
308 -15 309 0
308 -309 15 0
309 -310 6 0
309 -6 310 0
31 32 0
310 311 0
312 -19 -313 0
312 -313 -12 0
312 19 -12 0
313 -314 -320 0
313 -320 -12 0
313 314 -12 0
314 -315 -12 0
314 315 12 0
315 -12 316 0
315 -316 12 0
316 -25 317 0
316 -317 25 0
317 -318 6 0
317 -6 318 0
318 319 0
320 -321 -327 0
320 -327 -12 0
320 321 -12 0
321 -322 -12 0
321 322 12 0
322 -12 323 0
322 -323 12 0
323 -30 324 0
323 -324 30 0
324 -325 6 0
324 -6 325 0
325 326 0
327 -328 -334 0
327 -334 -12 0
327 328 -12 0
328 -329 -12 0
328 329 12 0
329 -12 330 0
329 -330 12 0
33 -34 -38 0
33 -38 -12 0
33 34 -12 0
330 -331 35 0
330 -35 331 0
331 -332 6 0
331 -6 332 0
332 333 0
334 -335 -43 0
334 -43 -12 0
334 335 -12 0
335 -336 -12 0
335 336 12 0
336 -12 337 0
336 -337 12 0
337 -338 40 0
337 -40 338 0
338 -339 6 0
338 -6 339 0
339 340 0
34 -35 -12 0
34 35 12 0
341 -299 -342 0
341 -342 -471 0
341 299 -471 0
342 -343 -347 0
342 -347 -380 0
342 343 -380 0
343 -344 -296 0
344 -345 -294 0
345 -346 -292 0
346 -291 -6 0
346 291 6 0
347 -306 -348 0
347 -348 -12 0
347 306 -12 0
348 -349 -353 0
348 -353 -362 0
348 349 -362 0
349 -350 -6 0
349 350 6 0
35 -36 6 0
35 -6 36 0
350 -351 6 0
350 -6 351 0
351 352 0
353 -354 -355 0
353 -355 -12 0
353 354 -12 0
354 -20 -12 0
354 20 12 0
355 -314 -356 0
355 -356 -12 0
355 314 -12 0
356 -321 -357 0
356 -357 -12 0
356 321 -12 0
357 -358 -359 0
357 -359 -12 0
357 358 -12 0
358 -35 -6 0
358 35 6 0
359 -335 -360 0
359 -360 -12 0
359 335 -12 0
36 37 0
360 -361 -48 0
360 -48 -12 0
360 361 -12 0
361 -45 -6 0
361 45 6 0
362 -363 -369 0
362 -369 -12 0
362 363 -12 0
363 -364 -12 0
363 364 12 0
364 -12 365 0
364 -365 12 0
365 -20 366 0
365 -366 20 0
366 -367 6 0
366 -6 367 0
367 368 0
369 -314 -370 0
369 -370 -12 0
369 314 -12 0
370 -321 -371 0
370 -371 -12 0
370 321 -12 0
371 -328 -372 0
371 -372 -12 0
371 328 -12 0
372 -335 -373 0
372 -373 -12 0
372 335 -12 0
373 -374 -48 0
373 -48 -12 0
373 374 -12 0
374 -375 -12 0
374 375 12 0
375 -12 376 0
375 -376 12 0
376 -377 45 0
376 -45 377 0
377 -378 6 0
377 -6 378 0
378 379 0
38 -39 -43 0
38 -43 -12 0
38 39 -12 0
380 -381 -385 0
380 -385 -390 0
380 381 -390 0
381 -382 -296 0
382 -383 -294 0
383 -290 -384 0
384 -293 -6 0
384 293 6 0
385 -306 -386 0
385 -386 -12 0
385 306 -12 0
386 -363 -387 0
386 -387 -12 0
386 363 -12 0
387 -314 -388 0
387 -388 -12 0
387 314 -12 0
388 -321 -389 0
388 -389 -12 0
388 321 -12 0
389 -34 -372 0
389 -372 -12 0
389 34 -12 0
39 -40 -12 0
39 40 12 0
390 -391 -394 0
390 -394 -399 0
390 391 -399 0
391 -392 -296 0
392 -393 -294 0
393 -346 -384 0
394 -306 -395 0
394 -395 -12 0
394 306 -12 0
395 -363 -396 0
395 -396 -12 0
395 363 -12 0
396 -314 -397 0
396 -397 -12 0
396 314 -12 0
397 -371 -12 0
397 -398 -371 0
397 398 -12 0
398 -30 -6 0
398 30 6 0
399 -400 -403 0
399 -403 -417 0
399 400 -417 0
4 5 0
40 -41 6 0
40 -6 41 0
400 -401 -296 0
401 -289 -402 0
402 -295 -6 0
402 295 6 0
403 -306 -404 0
403 -404 -12 0
403 306 -12 0
404 -363 -405 0
404 -405 -12 0
404 363 -12 0
405 -314 -406 0
405 -406 -12 0
405 314 -12 0
406 -321 -407 0
406 -407 -12 0
406 321 -12 0
407 -328 -408 0
407 -408 -12 0
407 328 -12 0
408 -335 -409 0
408 -409 -416 0
408 335 -416 0
409 -410 -414 0
409 -414 -373 0
409 410 -373 0
41 42 0
410 -411 -6 0
410 411 6 0
411 -412 6 0
411 -6 412 0
412 413 0
414 -373 -12 0
414 -415 -373 0
414 415 -12 0
415 -40 -6 0
415 40 6 0
416 -410 -414 0
416 -414 -12 0
416 410 -12 0
417 -418 -420 0
417 -420 -427 0
417 418 -427 0
418 -419 -296 0
419 -345 -402 0
420 -421 -422 0
420 -422 -12 0
420 421 -12 0
421 -15 -6 0
421 15 6 0
422 -363 -423 0
422 -423 -12 0
422 363 -12 0
423 -314 -424 0
423 -424 -12 0
423 314 -12 0
424 -321 -425 0
424 -425 -12 0
424 321 -12 0
425 -328 -426 0
425 -426 -12 0
425 328 -12 0
426 -373 -12 0
426 -39 -373 0
426 39 -12 0
427 -428 -430 0
427 -430 -440 0
427 428 -440 0
428 -382 -429 0
429 -297 -6 0
429 297 6 0
43 -44 -48 0
43 -48 -12 0
43 44 -12 0
430 -14 -431 0
430 -431 -12 0
430 14 -12 0
431 -363 -432 0
431 -432 -12 0
431 363 -12 0
432 -433 -437 0
432 -437 -369 0
432 433 -369 0
433 -434 -6 0
433 434 6 0
434 -435 6 0
434 -6 435 0
435 436 0
437 -314 -438 0
437 -438 -12 0
437 314 -12 0
438 -29 -439 0
438 -439 -12 0
438 29 -12 0
439 -358 -372 0
439 -372 -12 0
439 358 -12 0
44 -45 -12 0
44 45 12 0
440 -385 -443 0
440 -441 -385 0
440 441 -443 0
441 -442 -296 0
442 -383 -402 0
443 -444 -446 0
443 -446 -450 0
443 444 -450 0
444 -445 -296 0
445 -393 -402 0
446 -306 -447 0
446 -447 -12 0
446 306 -12 0
447 -363 -448 0
447 -448 -12 0
447 363 -12 0
448 -370 -12 0
448 -449 -370 0
448 449 -12 0
449 -25 -6 0
449 25 6 0
45 -46 6 0
45 -6 46 0
450 -403 -452 0
450 -451 -403 0
450 451 -452 0
451 -288 -429 0
452 -453 -454 0
452 -454 -457 0
452 453 -457 0
453 -344 -429 0
454 -455 -456 0
454 -456 -12 0
454 455 -12 0
455 -9 -6 0
455 9 6 0
456 -306 -422 0
456 -422 -12 0
456 306 -12 0
457 -14 -458 0
457 -458 -469 0
457 14 -469 0
458 -306 -459 0
458 -459 -468 0
458 306 -468 0
459 -460 -461 0
459 -461 -18 0
459 460 -18 0
46 47 0
460 -392 -429 0
461 -19 -462 0
461 -462 -466 0
461 19 -466 0
462 -363 -463 0
462 -463 -465 0
462 363 -465 0
463 -433 -464 0
463 -464 -369 0
463 433 -369 0
464 -24 -320 0
464 -320 -12 0
464 24 -12 0
465 -433 -464 0
465 -464 -12 0
465 433 -12 0
466 -363 -467 0
466 -467 -12 0
466 363 -12 0
467 -12 -369 0
467 -433 -12 0
467 433 -369 0
468 -12 -18 0
468 -460 -12 0
468 460 -18 0
469 -306 -470 0
469 -470 -12 0
469 306 -12 0
470 -460 -461 0
470 -461 -12 0
470 460 -12 0
471 -12 -472 0
471 -343 -12 0
471 343 -472 0
472 -12 -473 0
472 -381 -12 0
472 381 -473 0
473 -12 -474 0
473 -391 -12 0
473 391 -474 0
474 -12 -475 0
474 -400 -12 0
474 400 -475 0
475 -12 -476 0
475 -418 -12 0
475 418 -476 0
476 -12 -477 0
476 -428 -12 0
476 428 -477 0
477 -12 -478 0
477 -441 -12 0
477 441 -478 0
478 -12 -479 0
478 -444 -12 0
478 444 -479 0
479 -12 -452 0
479 -451 -12 0
479 451 -452 0
48 -49 -53 0
48 -53 -93 0
48 49 -93 0
480 -287 -298 0
480 -298 -481 0
480 287 -481 0
481 -299 -482 0
481 -482 -492 0
481 299 -492 0
482 -343 -347 0
482 -347 -483 0
482 343 -483 0
483 -381 -385 0
483 -385 -484 0
483 381 -484 0
484 -391 -394 0
484 -394 -485 0
484 391 -485 0
485 -400 -403 0
485 -403 -486 0
485 400 -486 0
486 -418 -420 0
486 -420 -487 0
486 418 -487 0
487 -428 -430 0
487 -430 -488 0
487 428 -488 0
488 -385 -489 0
488 -441 -385 0
488 441 -489 0
489 -444 -446 0
489 -446 -490 0
489 444 -490 0
49 -50 -6 0
49 50 6 0
490 -403 -491 0
490 -451 -403 0
490 451 -491 0
491 -453 -454 0
491 -454 -12 0
491 453 -12 0
492 -12 -493 0
492 -343 -12 0
492 343 -493 0
493 -12 -494 0
493 -381 -12 0
493 381 -494 0
494 -12 -495 0
494 -391 -12 0
494 391 -495 0
495 -12 -496 0
495 -400 -12 0
495 400 -496 0
496 -12 -497 0
496 -418 -12 0
496 418 -497 0
497 -12 -498 0
497 -428 -12 0
497 428 -498 0
498 -12 -499 0
498 -441 -12 0
498 441 -499 0
499 -12 -500 0
499 -444 -12 0
499 444 -500 0
50 -51 6 0
50 -6 51 0
500 -12 -491 0
500 -451 -12 0
500 451 -491 0
51 52 0
53 -54 -58 0
53 -58 -12 0
53 54 -12 0
54 -55 -12 0
54 55 12 0
55 -56 6 0
55 -6 56 0
56 57 0
58 -59 -63 0
58 -63 -12 0
58 59 -12 0
59 -60 -12 0
59 60 12 0
6 0
60 -6 61 0
60 -61 6 0
61 62 0
63 -64 -68 0
63 -68 -12 0
63 64 -12 0
64 -65 -6 0
64 65 6 0
65 -6 66 0
65 -66 6 0
66 67 0
68 -69 -73 0
68 -73 -12 0
68 69 -12 0
69 -70 -12 0
69 70 12 0
7 -13 -12 0
7 -8 -13 0
7 8 -12 0
70 -6 71 0
70 -71 6 0
71 72 0
73 -74 -78 0
73 -78 -12 0
73 74 -12 0
74 -75 -12 0
74 75 12 0
75 -6 76 0
75 -76 6 0
76 77 0
78 -79 -83 0
78 -83 -12 0
78 79 -12 0
79 -80 -12 0
79 80 12 0
8 -9 -12 0
8 9 12 0
80 -6 81 0
80 -81 6 0
81 82 0
83 -84 -88 0
83 -88 -12 0
83 84 -12 0
84 -85 -12 0
84 85 12 0
85 -6 86 0
85 -86 6 0
86 87 0
88 -6 -12 0
88 -89 -6 0
88 89 -12 0
89 -90 -12 0
89 90 12 0
9 -10 6 0
9 -6 10 0
90 -6 91 0
90 -91 6 0
91 92 0
93 -54 -94 0
93 -94 -264 0
93 54 -264 0
94 -106 -131 0
94 -95 -106 0
94 95 -131 0
95 -96 -104 0
96 -97 -102 0
97 -98 -100 0
98 -99 -12 0
98 99 12 0
